p cnf 10 40
 -1 -6 -5 0
 -5 -7 9 0
 7 9 1 0
 -3 2 7 0
 -8 -2 5 0
 6 1 -9 0
 -4 5 3 0
 -1 4 -6 0
 5 2 7 0
 -10 -7 -5 0
 -10 -3 8 0
 1 -8 -5 0
 5 6 -7 0
 8 -5 -2 0
 4 -8 -2 0
 8 -2 9 0
 8 -2 3 0
 1 8 -9 0
 -1 2 4 0
 -7 -8 4 0
 -9 1 -2 0
 -9 -3 -10 0
 9 10 7 0
 9 2 -1 0
 3 -10 1 0
 -4 9 -7 0
 -8 7 -10 0
 7 -3 2 0
 7 -9 8 0
 5 -10 -1 0
 -9 -3 6 0
 5 -8 4 0
 -4 -10 1 0
 -4 6 1 0
 -10 9 7 0
 -9 7 -6 0
 -1 -5 -3 0
 7 -8 2 0
 6 -2 -1 0
 -9 4 -6 0
c 1 a_1
c 2 a_2
c 3 a_3
c 4 a_4
c 5 a_5
c 6 a_6
c 7 a_7
c 8 a_8
c 9 a_9
c 10 a_10
